Test: fpga11_14_uns_rcr.cnf
Options: -no-inverting-opt
WARNING: for repeatability, setting FPU to use double precision
============================[ Problem Statistics ]=============================
|                                                                             |
|  Number of symmetries:           46                                         |
|  Number of invertingSyms:         0                                         |
|  Number of variables:           308                                         |
|  Number of clauses:            2030                                         |
|  Parse time:                   0.00 s                                       |
|                                                                             |
============================[ Search Statistics ]==============================
| Conflicts |          ORIGINAL         |          LEARNT          | Progress |
|           |    Vars  Clauses Literals |    Limit  Clauses Lit/Cl |          |
===============================================================================
|       100 |     308     2030     4312 |      744      110     57 |  0.001 % |
|       250 |     308     2030     4312 |      818      344     49 |  0.001 % |
|       475 |     308     2030     4312 |      900      665     50 |  0.001 % |
|       812 |     308     2030     4312 |      990      633     44 |  0.001 % |
|      1318 |     308     2030     4312 |     1089      917     43 |  0.001 % |
|      2077 |     308     2030     4312 |     1198      955     44 |  0.001 % |
|      3216 |     308     2030     4312 |     1318      916     43 |  0.001 % |
|      4924 |     308     2030     4312 |     1450      844     45 |  0.001 % |
===============================================================================
restarts              : 30
conflicts             : 6200           (39741 /sec)
symconflicts          : 744            (4769 /sec)
decisions             : 10843          (0.00 % random) (69502 /sec)
propagations          : 151860         (973405 /sec)
sympropagations       : 4894           (31370 /sec)
conflict literals     : 292823         (7.49 % deleted)
literals     : 292823         (7.49 % deleted)

HEURISTIC USAGES
random                : 0           
activity w/ lookahead : 0           
activity no lookahead : 0           
original sp           : 10843       
sym count             : 0           

Memory used           : 6.00 MB
CPU time              : 0.156009 s

UNSATISFIABLE
